2406825345075341721504,14,1,2,013,10,1,2,013,12,1,2,07,3,1,2,011,13,1,2,012,5,1,2,013,11,1,2,01,9,1,2,03,14,1,2,014,5,1,2,012,13,1,2,03,11,1,2,06,5,1,2,01,6,1,2,06,2,1,2,06,10,1,2,08,3,1,2,09,13,1,2,07,14,1,2,05,15,1,2,06,7,1,2,011,7,1,2,02,3,1,2,08,5,1,2,09,1,1,2,05,5,1,2,05,12,1,2,05,2,1,2,08,2,1,2,08,8,1,2,012,9,1,2,015,11,1,2,010,7,1,2,014,9,1,2,011,5,1,2,07,13,1,2,03,6,1,2,014,15,1,2,013,13,1,2,011,5,1,2,01,10,1,2,05,1,1,2,014,13,1,2,010,5,1,2,012,13,1,2,07,6,1,2,012,2,1,2,07,6,1,2,07,11,1,2,09,6,1,2,0